#SOLVERNAME# PAJ_CPLEX_MOSEK_msd
#SOLVER# Pajarito.PajaritoSolver(3, 3600.0, 1.0e-5, true, CPLEX.CplexSolver(Any[(:CPX_PARAM_THREADS, 1), (:CPX_PARAM_SCRIND, 1), (:CPX_PARAM_EPINT, 1.0e-9), (:CPX_PARAM_EPRHS, 1.0e-8), (:CPX_PARAM_EPGAP, 1.0e-5)]), Pajarito.UnsetSolver(), 0, false, true, Mosek.MosekSolver(Any[(:LOG, 0), (:NUM_THREADS, 1), (:MSK_DPAR_INTPNT_CO_TOL_REL_GAP, 1.0e-10), (:MSK_DPAR_INTPNT_CO_TOL_PFEAS, 1.0e-10), (:MSK_DPAR_INTPNT_CO_TOL_DFEAS, 1.0e-10), (:MSK_DPAR_INTPNT_CO_TOL_NEAR_REL, 1000.0)]), true, true, false, false, true, false, false, true, false, true, true, true, true, false, true, 10.0, true, false, false, true, 1.0e-12, 1.0e-8, false, "")
#INSTANCE# ck_n50_m10_o1_5.cbf.gz
#TIMELIMIT# 3600.0

Problem dimensions:
       variables |    1081
     constraints |    1080
   nonzeros in A |    1778

Cones summary:
Cone             | Count   | Min dim.  | Max dim. 
    Rotated S.O. |      10 |        52 |        52

Variable types:
      continuous |    1031
         integer |      50

Transforming data...               0.00s

Creating conic subproblem...       0.01s

Building MIP model...              0.00s

Solving conic relaxation...        0.01s
 - Relaxation status    =        Optimal
 - Relaxation bound     =  -20546.054756

Mixed integer rounding cuts applied:  3
Gomory fractional cuts applied:  3
User cuts applied:  165

Root node processing (before b&c):
  Real time             =    0.35 sec. (17.23 ticks)
Sequential b&c:
  Real time             =    0.01 sec. (7.71 ticks)
                          ------------
Total (root+branch&cut) =    0.36 sec. (24.94 ticks)
Warning: Control callbacks may disable some MIP features.
Tried aggregator 2 times.
MIP Presolve eliminated 2755 rows and 822 columns.
MIP Presolve modified 3 coefficients.
Aggregator did 198 substitutions.
Reduced MIP has 287 rows, 570 columns, and 1462 nonzeros.
Reduced MIP has 50 binaries, 0 generals, 0 SOSs, and 0 indicators.
Presolve time = 0.00 sec. (2.61 ticks)
Probing time = 0.00 sec. (0.63 ticks)
Clique table members: 4.
MIP emphasis: balance optimality and feasibility.
MIP search method: traditional branch-and-cut.
Parallel mode: none, using 1 thread.
Root relaxation solution time = 0.00 sec. (1.61 ticks)

        Nodes                                         Cuts/
   Node  Left     Objective  IInf  Best Integer    Best Bound    ItCnt     Gap

      0     0   -20546.0548    12                 -20546.0548      156         
*     0+    0                       -17122.0000   -20546.0548            20.00%
*     0+    0                       -18527.0000   -20546.0548            10.90%
      0     0   -19807.9907    15   -18527.0000      Cuts: 83      252    6.91%
      0     0   -19748.3107    13   -18527.0000      Cuts: 59      306    6.59%
*     0+    0                       -18612.0000   -19748.3107             6.11%
      0     0   -19581.3663    15   -18612.0000      Cuts: 53      362    5.21%
*     0+    0                       -19139.0000   -19581.3663             2.31%
      0     0   -19535.8279    15   -19139.0000      Cuts: 41      421    2.07%
      0     0   -19523.1667    21   -19139.0000      Cuts: 26      450    2.01%
      0     0   -19452.0823    15   -19139.0000      Cuts: 24      517    1.64%
      0     0   -19420.4368    18   -19139.0000      Cuts: 53      563    1.47%
      0     0   -19390.9740    19   -19139.0000      Cuts: 28      617    1.32%
*     0+    0                       -19331.0000   -19390.9740             0.31%
      0     0   -19380.0386    16   -19331.0000      Cuts: 54      663    0.25%
      0     0   -19371.6203     5   -19331.0000      Cuts: 13      719    0.21%
      0     0   -19370.5000     5   -19331.0000      Cuts: 28      736    0.20%
      0     0   -19368.0000     3   -19331.0000      Cuts: 13      781    0.19%
      0     0   -19366.3720    18   -19331.0000      Cuts: 10      816    0.18%
      0     0        cutoff         -19331.0000   -19366.3720      816    0.18%
Elapsed time = 0.16 sec. (107.27 ticks, tree = 0.01 MB, solutions = 5)

Starting MIP-solver-driven algorithm

MIP-solver-driven algorithm summary:
 - Status               =        Optimal
 - Best feasible        =  -1.933100e+04
 - Best bound           =  -1.933100e+04
 - Relative opt. gap    =      0.000e+00
 - Total time (s)       =       2.03e-01

Timers (s):
 - Setup                =   1.66e-02
 -- Transform data      =   5.38e-04
 -- Create conic data   =   1.31e-02
 -- Create MIP data     =   3.00e-03
 - Algorithm            =   1.86e-01
 -- Solve relaxation    =   1.06e-02
 -- Get relaxation cuts =   2.53e-04
 -- MIP solver driving  =   1.71e-01
 -- Solve subproblems   =   2.22e-02
 -- Get subproblem cuts =   2.04e-04
 -- Get separation cuts =   1.85e-03

Counters:
 - Lazy callbacks       =    16
 -- Integer repeats     =    11
 -- Conic subproblems   =     6
 --- Infeasible         =     0
 --- Optimal            =     6
 --- Suboptimal         =     0
 --- UserLimit          =     0
 --- ConicFailure       =     0
 --- Other status       =     0
 -- Feasible solutions  =    13
 --- From subproblems   =     6
 --- In lazy callback   =     7
 - Heuristic callbacks  =    14
 -- Solutions passed    =     4

Solution returned by conic solver

Rounds of full separation/subproblem cuts, and count of cuts added:
Cone             | Subp.  | Sep.   | Total  | Relax. | Viol. 
    Second order |     12 |     45 |    214 |    100 |    214

24 numerically unstable disaggregated SOC cuts

Distance to feasibility (negative indicates strict feasibility):
Cone             | Variable  | Constraint
          Linear |  0.00e+00 |  0.00e+00
    Rotated S.O. | -4.61e-02 |        NA

Distance to integrality of integer/binary variables:
         integer |  0.00e+00


Clique cuts applied:  2
Cover cuts applied:  7
Flow cuts applied:  15
Mixed integer rounding cuts applied:  26
Zero-half cuts applied:  7
User cuts applied:  193

Root node processing (before b&c):
  Real time             =    0.16 sec. (107.36 ticks)
Sequential b&c:
  Real time             =    0.00 sec. (0.00 ticks)
                          ------------
Total (root+branch&cut) =    0.16 sec. (107.36 ticks)
#STATUS# Optimal
#OBJVAL# 19331.0
#OBJBOUND# 19331.0
#NODECOUNT# 0
#TIMESOLVER# 0.20284295082092285
#TIMEALL# 0.23895812034606934
#SOLUTION# [1.0,1.0,1.0,1.0,1.0,-0.0,1.0,-0.0,1.0,1.0,1.0,1.0,-0.0,0.0,-0.0,1.0,-0.0,1.0,0.0,0.0,1.0,0.0,1.0,-0.0,0.0,1.0,1.0,-0.0,1.0,1.0,0.0,1.0,1.0,1.0,-0.0,0.0,1.0,1.0,0.0,1.0,1.0,1.0,0.0,1.0,-0.0,1.0,1.0,1.0,1.0,0.0,0.0,0.0,9.0,0.0,14.0,0.0,0.0,28.0,0.0,0.0,0.0,0.0,0.0,0.0,0.0,0.0,0.0,0.0,0.0,0.0,0.0,0.0,0.0,0.0,0.0,0.0,0.0,0.0,0.0,0.0,0.0,0.0,0.0,0.0,0.0,0.0,0.0,0.0,0.0,0.0,43.0,0.0,52.0,0.0,0.0,0.0,0.0,0.0,0.0,0.0,0.0,74.96120672005567,40.0,0.0,0.0,0.0,1.0,0.0,0.0,0.0,0.0,1.0,0.0,0.0,0.0,0.0,0.0,0.0,0.0,0.0,0.0,0.0,0.0,0.0,0.0,0.0,0.0,0.0,20.0,0.0,31.0,21.0,0.0,0.0,0.0,14.0,0.0,0.0,0.0,0.0,0.0,0.0,0.0,0.0,0.0,0.0,0.0,0.0,0.0,0.0,0.0,0.0,62.020786601925295,0.0,0.0,0.0,0.0,29.0,0.0,0.0,0.0,0.0,0.0,0.0,0.0,0.0,0.0,0.0,0.0,0.0,0.0,0.0,0.0,0.0,0.0,0.0,0.0,0.0,0.0,0.0,0.0,0.0,0.0,0.0,0.0,0.0,0.0,0.0,0.0,0.0,0.0,0.0,0.0,0.0,0.0,0.0,0.0,0.0,9.0,0.0,0.0,0.0,0.0,65.21735764122826,23.0,0.0,0.0,0.0,0.0,0.0,0.0,0.0,0.0,0.0,57.0,0.0,0.0,0.0,0.0,0.0,0.0,0.0,0.0,0.0,0.0,0.0,0.0,0.0,0.0,0.0,0.0,0.0,0.0,6.0,0.0,0.0,0.0,0.0,0.0,0.0,0.0,0.0,0.0,0.0,0.0,0.0,0.0,0.0,0.0,0.0,0.0,0.0,0.0,0.0,62.90048575053024,0.0,0.0,0.0,0.0,0.0,0.0,0.0,0.0,0.0,0.0,0.0,0.0,0.0,0.0,0.0,34.0,0.0,0.0,0.0,0.0,0.0,0.0,0.0,0.0,0.0,0.0,0.0,0.0,0.0,0.0,0.0,0.0,0.0,0.0,0.0,0.0,0.0,0.0,0.0,0.0,0.0,0.0,0.0,0.0,0.0,0.0,0.0,0.0,0.0,0.0,34.43286964719169,0.0,0.0,0.0,0.0,0.0,0.0,0.0,0.0,0.0,0.0,0.0,0.0,0.0,0.0,0.0,0.0,0.0,0.0,0.0,0.0,3.0,0.0,0.0,0.0,0.0,0.0,9.0,0.0,0.0,0.0,0.0,25.0,0.0,0.0,0.0,0.0,0.0,0.0,0.0,0.0,0.0,0.0,0.0,0.0,0.0,0.0,0.0,3.0,93.0,0.0,103.51675091962215,0.0,66.0,9.0,0.0,0.0,0.0,0.0,0.0,2.0,0.0,0.0,0.0,0.0,0.0,0.0,25.0,0.0,0.0,0.0,0.0,0.0,0.0,0.0,0.0,0.0,0.0,0.0,0.0,0.0,0.0,0.0,0.0,0.0,0.0,0.0,0.0,0.0,0.0,0.0,0.0,40.0,0.0,0.0,0.0,0.0,0.0,0.0,0.0,0.0,0.0,90.41194185877028,0.0,6.0,0.0,0.0,0.0,0.0,0.0,0.0,11.0,0.0,0.0,0.0,0.0,0.0,0.0,0.0,0.0,0.0,0.0,0.0,0.0,0.0,0.0,0.0,0.0,0.0,0.0,0.0,0.0,0.0,0.0,0.0,0.0,0.0,0.0,0.0,0.0,0.0,0.0,27.0,0.0,0.0,0.0,0.0,0.0,0.0,0.0,0.0,0.0,0.0,41.53457638776761,0.0,0.0,10.0,0.0,0.0,0.0,17.0,0.0,0.0,0.0,0.0,0.0,0.0,0.0,0.0,0.0,0.0,0.0,0.0,0.0,0.0,0.0,17.0,0.0,0.0,0.0,0.0,0.0,0.0,0.0,0.0,0.0,3.0,0.0,0.0,0.0,1.0,0.0,0.0,0.0,0.0,0.0,0.0,0.0,0.0,0.0,27.0,0.0,9.0,0.0,79.3182106289988,0.0,0.0,0.0,32.0,0.0,0.0,0.0,0.0,0.0,0.0,0.0,0.0,0.0,0.0,0.0,0.0,0.0,0.0,0.0,0.0,0.0,0.0,9.0,0.0,0.0,32.0,34.0,0.0,0.0,0.0,0.0,0.0,0.0,0.0,0.0,0.0,0.0,0.0,0.0,0.0,0.0,0.0,0.0,0.0,0.0,0.0,0.0,0.0,0.0,0.0,68.45102198860636,106.01115519535591,53.00557759767796,-0.0,12.727922061357855,-0.0,19.798989873223327,-0.0,-0.0,39.597979746446654,-0.0,-0.0,-0.0,-0.0,-0.0,-0.0,-0.0,-0.0,-0.0,-0.0,-0.0,-0.0,-0.0,-0.0,-0.0,-0.0,-0.0,-0.0,-0.0,-0.0,-0.0,-0.0,-0.0,-0.0,-0.0,-0.0,-0.0,-0.0,-0.0,-0.0,-0.0,-0.0,60.81118318204308,-0.0,73.53910524340094,-0.0,-0.0,-0.0,-0.0,-0.0,-0.0,-0.0,-0.0,87.71063756149029,43.85531878074515,56.5685424949238,-0.0,-0.0,-0.0,1.414213562373095,-0.0,-0.0,-0.0,-0.0,1.414213562373095,-0.0,-0.0,-0.0,-0.0,-0.0,-0.0,-0.0,-0.0,-0.0,-0.0,-0.0,-0.0,-0.0,-0.0,-0.0,-0.0,28.2842712474619,-0.0,43.840620433565945,29.698484809834994,-0.0,-0.0,-0.0,19.798989873223327,-0.0,-0.0,-0.0,-0.0,-0.0,-0.0,-0.0,-0.0,-0.0,-0.0,-0.0,-0.0,-0.0,-0.0,-0.0,-0.0,92.23127167836161,46.11563583918081,-0.0,-0.0,-0.0,-0.0,41.012193308819754,-0.0,-0.0,-0.0,-0.0,-0.0,-0.0,-0.0,-0.0,-0.0,-0.0,-0.0,-0.0,-0.0,-0.0,-0.0,-0.0,-0.0,-0.0,-0.0,-0.0,-0.0,-0.0,-0.0,-0.0,-0.0,-0.0,-0.0,-0.0,-0.0,-0.0,-0.0,-0.0,-0.0,-0.0,-0.0,-0.0,-0.0,-0.0,-0.0,-0.0,12.727922061357855,-0.0,-0.0,-0.0,-0.0,88.95472002825547,44.47736001412774,32.526911934581186,-0.0,-0.0,-0.0,-0.0,-0.0,-0.0,-0.0,-0.0,-0.0,80.61017305526642,-0.0,-0.0,-0.0,-0.0,-0.0,-0.0,-0.0,-0.0,-0.0,-0.0,-0.0,-0.0,-0.0,-0.0,-0.0,-0.0,-0.0,-0.0,8.48528137423857,-0.0,-0.0,-0.0,-0.0,-0.0,-0.0,-0.0,-0.0,-0.0,-0.0,-0.0,-0.0,-0.0,-0.0,-0.0,-0.0,-0.0,-0.0,-0.0,-0.0,48.695431246483366,24.347715623241687,-0.0,-0.0,-0.0,-0.0,-0.0,-0.0,-0.0,-0.0,-0.0,-0.0,-0.0,-0.0,-0.0,-0.0,-0.0,48.08326112068523,-0.0,-0.0,-0.0,-0.0,-0.0,-0.0,-0.0,-0.0,-0.0,-0.0,-0.0,-0.0,-0.0,-0.0,-0.0,-0.0,-0.0,-0.0,-0.0,-0.0,-0.0,-0.0,-0.0,-0.0,-0.0,-0.0,-0.0,-0.0,-0.0,-0.0,-0.0,-0.0,-0.0,-0.0,146.3947930833272,73.19739654166361,-0.0,-0.0,-0.0,-0.0,-0.0,-0.0,-0.0,-0.0,-0.0,-0.0,-0.0,-0.0,-0.0,-0.0,-0.0,-0.0,-0.0,-0.0,-0.0,-0.0,4.242640687119285,-0.0,-0.0,-0.0,-0.0,-0.0,12.727922061357855,-0.0,-0.0,-0.0,-0.0,35.35533905932737,-0.0,-0.0,-0.0,-0.0,-0.0,-0.0,-0.0,-0.0,-0.0,-0.0,-0.0,-0.0,-0.0,-0.0,-0.0,4.242640687119285,131.52186130069782,-0.0,127.86179437716065,63.93089718858034,-0.0,93.33809511662426,12.727922061357855,-0.0,-0.0,-0.0,-0.0,-0.0,2.82842712474619,-0.0,-0.0,-0.0,-0.0,-0.0,-0.0,35.35533905932737,-0.0,-0.0,-0.0,-0.0,-0.0,-0.0,-0.0,-0.0,-0.0,-0.0,-0.0,-0.0,-0.0,-0.0,-0.0,-0.0,-0.0,-0.0,-0.0,-0.0,-0.0,-0.0,-0.0,-0.0,56.5685424949238,-0.0,-0.0,-0.0,-0.0,-0.0,-0.0,-0.0,-0.0,-0.0,58.73876123500226,29.369380617501136,-0.0,8.48528137423857,-0.0,-0.0,-0.0,-0.0,-0.0,-0.0,15.556349186104043,-0.0,-0.0,-0.0,-0.0,-0.0,-0.0,-0.0,-0.0,-0.0,-0.0,-0.0,-0.0,-0.0,-0.0,-0.0,-0.0,-0.0,-0.0,-0.0,-0.0,-0.0,-0.0,-0.0,-0.0,-0.0,-0.0,-0.0,-0.0,-0.0,-0.0,38.18376618407356,-0.0,-0.0,-0.0,-0.0,-0.0,-0.0,-0.0,-0.0,-0.0,-0.0,112.17288921469587,56.08644460734794,-0.0,-0.0,14.14213562373095,-0.0,-0.0,-0.0,24.041630560342615,-0.0,-0.0,-0.0,-0.0,-0.0,-0.0,-0.0,-0.0,-0.0,-0.0,-0.0,-0.0,-0.0,-0.0,-0.0,24.041630560342615,-0.0,-0.0,-0.0,-0.0,-0.0,-0.0,-0.0,-0.0,-0.0,4.242640687119285,-0.0,-0.0,-0.0,1.414213562373095,-0.0,-0.0,-0.0,-0.0,-0.0,-0.0,-0.0,-0.0,-0.0,38.18376618407356,-0.0,12.727922061357855,-0.0,96.80436365458604,48.402181827293035,-0.0,-0.0,-0.0,45.25483399593904,-0.0,-0.0,-0.0,-0.0,-0.0,-0.0,-0.0,-0.0,-0.0,-0.0,-0.0,-0.0,-0.0,-0.0,-0.0,-0.0,-0.0,-0.0,12.727922061357855,-0.0,-0.0,45.25483399593904,48.08326112068523,-0.0,-0.0,-0.0,-0.0,-0.0,-0.0,-0.0,-0.0,-0.0,-0.0,-0.0,-0.0,-0.0,-0.0,-0.0,-0.0,-0.0,-0.0,-0.0,-0.0,-0.0,-0.0,-0.0]
